c File: flat50_3_0.col
c
c SOURCE: Joseph Culberson (joe@cs.ualberta.ca)
c DESCRIPTION: Quasi-random coloring problem
c              generated with flatness = 0
c                             probability = 0.139
c                             known coloring = 3
c                             random seed = 1295
c              Creation Date:  Tue Jun  9 12:05:52 1998
c Maximum degree = 8 Minimum degree = 1
c p edge 50 115
c cnf created by edge2cnf
p cnf 150 545
-1 -2 0
-1 -3 0
-2 -3 0
1 2 3 0
-4 -5 0
-4 -6 0
-5 -6 0
4 5 6 0
-7 -8 0
-7 -9 0
-8 -9 0
7 8 9 0
-10 -11 0
-10 -12 0
-11 -12 0
10 11 12 0
-13 -14 0
-13 -15 0
-14 -15 0
13 14 15 0
-16 -17 0
-16 -18 0
-17 -18 0
16 17 18 0
-19 -20 0
-19 -21 0
-20 -21 0
19 20 21 0
-22 -23 0
-22 -24 0
-23 -24 0
22 23 24 0
-25 -26 0
-25 -27 0
-26 -27 0
25 26 27 0
-28 -29 0
-28 -30 0
-29 -30 0
28 29 30 0
-31 -32 0
-31 -33 0
-32 -33 0
31 32 33 0
-34 -35 0
-34 -36 0
-35 -36 0
34 35 36 0
-37 -38 0
-37 -39 0
-38 -39 0
37 38 39 0
-40 -41 0
-40 -42 0
-41 -42 0
40 41 42 0
-43 -44 0
-43 -45 0
-44 -45 0
43 44 45 0
-46 -47 0
-46 -48 0
-47 -48 0
46 47 48 0
-49 -50 0
-49 -51 0
-50 -51 0
49 50 51 0
-52 -53 0
-52 -54 0
-53 -54 0
52 53 54 0
-55 -56 0
-55 -57 0
-56 -57 0
55 56 57 0
-58 -59 0
-58 -60 0
-59 -60 0
58 59 60 0
-61 -62 0
-61 -63 0
-62 -63 0
61 62 63 0
-64 -65 0
-64 -66 0
-65 -66 0
64 65 66 0
-67 -68 0
-67 -69 0
-68 -69 0
67 68 69 0
-70 -71 0
-70 -72 0
-71 -72 0
70 71 72 0
-73 -74 0
-73 -75 0
-74 -75 0
73 74 75 0
-76 -77 0
-76 -78 0
-77 -78 0
76 77 78 0
-79 -80 0
-79 -81 0
-80 -81 0
79 80 81 0
-82 -83 0
-82 -84 0
-83 -84 0
82 83 84 0
-85 -86 0
-85 -87 0
-86 -87 0
85 86 87 0
-88 -89 0
-88 -90 0
-89 -90 0
88 89 90 0
-91 -92 0
-91 -93 0
-92 -93 0
91 92 93 0
-94 -95 0
-94 -96 0
-95 -96 0
94 95 96 0
-97 -98 0
-97 -99 0
-98 -99 0
97 98 99 0
-100 -101 0
-100 -102 0
-101 -102 0
100 101 102 0
-103 -104 0
-103 -105 0
-104 -105 0
103 104 105 0
-106 -107 0
-106 -108 0
-107 -108 0
106 107 108 0
-109 -110 0
-109 -111 0
-110 -111 0
109 110 111 0
-112 -113 0
-112 -114 0
-113 -114 0
112 113 114 0
-115 -116 0
-115 -117 0
-116 -117 0
115 116 117 0
-118 -119 0
-118 -120 0
-119 -120 0
118 119 120 0
-121 -122 0
-121 -123 0
-122 -123 0
121 122 123 0
-124 -125 0
-124 -126 0
-125 -126 0
124 125 126 0
-127 -128 0
-127 -129 0
-128 -129 0
127 128 129 0
-130 -131 0
-130 -132 0
-131 -132 0
130 131 132 0
-133 -134 0
-133 -135 0
-134 -135 0
133 134 135 0
-136 -137 0
-136 -138 0
-137 -138 0
136 137 138 0
-139 -140 0
-139 -141 0
-140 -141 0
139 140 141 0
-142 -143 0
-142 -144 0
-143 -144 0
142 143 144 0
-145 -146 0
-145 -147 0
-146 -147 0
145 146 147 0
-148 -149 0
-148 -150 0
-149 -150 0
148 149 150 0
-79 -1 0
-80 -2 0
-81 -3 0
-94 -1 0
-95 -2 0
-96 -3 0
-109 -1 0
-110 -2 0
-111 -3 0
-127 -1 0
-128 -2 0
-129 -3 0
-139 -1 0
-140 -2 0
-141 -3 0
-61 -4 0
-62 -5 0
-63 -6 0
-97 -4 0
-98 -5 0
-99 -6 0
-100 -4 0
-101 -5 0
-102 -6 0
-112 -4 0
-113 -5 0
-114 -6 0
-127 -4 0
-128 -5 0
-129 -6 0
-58 -7 0
-59 -8 0
-60 -9 0
-79 -7 0
-80 -8 0
-81 -9 0
-85 -7 0
-86 -8 0
-87 -9 0
-88 -7 0
-89 -8 0
-90 -9 0
-121 -7 0
-122 -8 0
-123 -9 0
-58 -10 0
-59 -11 0
-60 -12 0
-61 -10 0
-62 -11 0
-63 -12 0
-118 -10 0
-119 -11 0
-120 -12 0
-133 -10 0
-134 -11 0
-135 -12 0
-52 -13 0
-53 -14 0
-54 -15 0
-97 -13 0
-98 -14 0
-99 -15 0
-109 -13 0
-110 -14 0
-111 -15 0
-118 -13 0
-119 -14 0
-120 -15 0
-52 -16 0
-53 -17 0
-54 -18 0
-64 -16 0
-65 -17 0
-66 -18 0
-67 -16 0
-68 -17 0
-69 -18 0
-97 -16 0
-98 -17 0
-99 -18 0
-115 -16 0
-116 -17 0
-117 -18 0
-124 -16 0
-125 -17 0
-126 -18 0
-133 -16 0
-134 -17 0
-135 -18 0
-136 -16 0
-137 -17 0
-138 -18 0
-55 -19 0
-56 -20 0
-57 -21 0
-97 -19 0
-98 -20 0
-99 -21 0
-130 -19 0
-131 -20 0
-132 -21 0
-136 -19 0
-137 -20 0
-138 -21 0
-67 -22 0
-68 -23 0
-69 -24 0
-79 -22 0
-80 -23 0
-81 -24 0
-100 -25 0
-101 -26 0
-102 -27 0
-112 -25 0
-113 -26 0
-114 -27 0
-115 -25 0
-116 -26 0
-117 -27 0
-127 -25 0
-128 -26 0
-129 -27 0
-148 -25 0
-149 -26 0
-150 -27 0
-61 -28 0
-62 -29 0
-63 -30 0
-64 -28 0
-65 -29 0
-66 -30 0
-109 -28 0
-110 -29 0
-111 -30 0
-136 -28 0
-137 -29 0
-138 -30 0
-148 -28 0
-149 -29 0
-150 -30 0
-58 -31 0
-59 -32 0
-60 -33 0
-64 -31 0
-65 -32 0
-66 -33 0
-67 -31 0
-68 -32 0
-69 -33 0
-106 -31 0
-107 -32 0
-108 -33 0
-127 -31 0
-128 -32 0
-129 -33 0
-70 -34 0
-71 -35 0
-72 -36 0
-100 -34 0
-101 -35 0
-102 -36 0
-109 -34 0
-110 -35 0
-111 -36 0
-115 -34 0
-116 -35 0
-117 -36 0
-124 -34 0
-125 -35 0
-126 -36 0
-139 -34 0
-140 -35 0
-141 -36 0
-91 -37 0
-92 -38 0
-93 -39 0
-121 -37 0
-122 -38 0
-123 -39 0
-70 -40 0
-71 -41 0
-72 -42 0
-79 -40 0
-80 -41 0
-81 -42 0
-91 -43 0
-92 -44 0
-93 -45 0
-94 -43 0
-95 -44 0
-96 -45 0
-115 -43 0
-116 -44 0
-117 -45 0
-142 -43 0
-143 -44 0
-144 -45 0
-148 -43 0
-149 -44 0
-150 -45 0
-70 -46 0
-71 -47 0
-72 -48 0
-88 -46 0
-89 -47 0
-90 -48 0
-94 -46 0
-95 -47 0
-96 -48 0
-106 -46 0
-107 -47 0
-108 -48 0
-118 -46 0
-119 -47 0
-120 -48 0
-136 -46 0
-137 -47 0
-138 -48 0
-85 -49 0
-86 -50 0
-87 -51 0
-94 -49 0
-95 -50 0
-96 -51 0
-100 -49 0
-101 -50 0
-102 -51 0
-121 -49 0
-122 -50 0
-123 -51 0
-139 -49 0
-140 -50 0
-141 -51 0
-130 -52 0
-131 -53 0
-132 -54 0
-139 -52 0
-140 -53 0
-141 -54 0
-142 -52 0
-143 -53 0
-144 -54 0
-124 -55 0
-125 -56 0
-126 -57 0
-136 -55 0
-137 -56 0
-138 -57 0
-145 -55 0
-146 -56 0
-147 -57 0
-106 -61 0
-107 -62 0
-108 -63 0
-112 -61 0
-113 -62 0
-114 -63 0
-124 -61 0
-125 -62 0
-126 -63 0
-109 -64 0
-110 -65 0
-111 -66 0
-115 -64 0
-116 -65 0
-117 -66 0
-145 -64 0
-146 -65 0
-147 -66 0
-148 -64 0
-149 -65 0
-150 -66 0
-127 -67 0
-128 -68 0
-129 -69 0
-103 -70 0
-104 -71 0
-105 -72 0
-115 -70 0
-116 -71 0
-117 -72 0
-127 -70 0
-128 -71 0
-129 -72 0
-130 -70 0
-131 -71 0
-132 -72 0
-121 -73 0
-122 -74 0
-123 -75 0
-133 -73 0
-134 -74 0
-135 -75 0
-145 -73 0
-146 -74 0
-147 -75 0
-133 -76 0
-134 -77 0
-135 -78 0
-112 -79 0
-113 -80 0
-114 -81 0
-115 -79 0
-116 -80 0
-117 -81 0
-136 -79 0
-137 -80 0
-138 -81 0
-103 -82 0
-104 -83 0
-105 -84 0
-112 -85 0
-113 -86 0
-114 -87 0
-136 -85 0
-137 -86 0
-138 -87 0
-139 -85 0
-140 -86 0
-141 -87 0
-112 -91 0
-113 -92 0
-114 -93 0
-118 -91 0
-119 -92 0
-120 -93 0
-127 -91 0
-128 -92 0
-129 -93 0
-133 -91 0
-134 -92 0
-135 -93 0
-148 -94 0
-149 -95 0
-150 -96 0
-106 -97 0
-107 -98 0
-108 -99 0
-148 -97 0
-149 -98 0
-150 -99 0
-127 -100 0
-128 -101 0
-129 -102 0
